\Problem name: ilog.cplex

Minimize
 obj: 2 c(0) + c(4) + c(5) + c(7)
Subject To
 IloC0:  x(0)(0)(0)  = 0
 IloC1:  x(0)(0)(1)  = 0
 IloC2:  x(0)(4)(0)  = 0
 IloC3:  x(0)(5)(0)  = 0
 IloC4:  x(1)(0)(0)  = 0
 IloC5:  x(1)(0)(1)  = 0
 IloC6:  x(1)(7)(0)  = 0
 IloC7:  - x(0)(0)(1) + y(0)(0) - x(0)(0)(4) - x(0)(0)(3) - x(0)(0)(2)  = 0
 IloC8:  - c(0) + y(0)(0) <= 0
 IloC9:  y(0)(1) - x(0)(1)(4) - x(0)(1)(3) - x(0)(1)(2) - x(0)(1)(1)  = 0
 IloC10: y(0)(1) - c(1) <= 0
 IloC11: y(0)(2) - x(0)(2)(4) - x(0)(2)(3) - x(0)(2)(2) - x(0)(2)(1)  = 0
 IloC12: y(0)(2) - c(2) <= 0
 IloC13: y(0)(3) - x(0)(3)(4) - x(0)(3)(3) - x(0)(3)(2) - x(0)(3)(1)  = 0
 IloC14: y(0)(3) - c(3) <= 0
 IloC15: y(0)(4) - x(0)(4)(4) - x(0)(4)(3) - x(0)(4)(2) - x(0)(4)(1)  = 0
 IloC16: - c(4) + y(0)(4) <= 0
 IloC17: y(0)(5) - x(0)(5)(4) - x(0)(5)(3) - x(0)(5)(2) - x(0)(5)(1)  = 0
 IloC18: - c(5) + y(0)(5) <= 0
 IloC19: y(0)(6) - x(0)(6)(4) - x(0)(6)(3) - x(0)(6)(2) - x(0)(6)(1)  = 0
 IloC20: y(0)(6) - c(6) <= 0
 IloC21: y(0)(7) - x(0)(7)(4) - x(0)(7)(3) - x(0)(7)(2) - x(0)(7)(1)  = 0
 IloC22: - c(7) + y(0)(7) <= 0
 IloC23: y(0)(8) - x(0)(8)(4) - x(0)(8)(3) - x(0)(8)(2) - x(0)(8)(1)  = 0
 IloC24: y(0)(8) - c(8) <= 0
 IloC25: - x(1)(0)(1) + y(1)(0) - x(1)(0)(4) - x(1)(0)(3) - x(1)(0)(2)  = 0
 IloC26: - c(0) + y(1)(0) <= 0
 IloC27: y(1)(1) - x(1)(1)(4) - x(1)(1)(3) - x(1)(1)(2) - x(1)(1)(1)  = 0
 IloC28: - c(1) + y(1)(1) <= 0
 IloC29: y(1)(2) - x(1)(2)(4) - x(1)(2)(3) - x(1)(2)(2) - x(1)(2)(1)  = 0
 IloC30: - c(2) + y(1)(2) <= 0
 IloC31: y(1)(3) - x(1)(3)(4) - x(1)(3)(3) - x(1)(3)(2) - x(1)(3)(1)  = 0
 IloC32: - c(3) + y(1)(3) <= 0
 IloC33: y(1)(4) - x(1)(4)(4) - x(1)(4)(3) - x(1)(4)(2) - x(1)(4)(1)  = 0
 IloC34: - c(4) + y(1)(4) <= 0
 IloC35: y(1)(5) - x(1)(5)(4) - x(1)(5)(3) - x(1)(5)(2) - x(1)(5)(1)  = 0
 IloC36: - c(5) + y(1)(5) <= 0
 IloC37: y(1)(6) - x(1)(6)(4) - x(1)(6)(3) - x(1)(6)(2) - x(1)(6)(1)  = 0
 IloC38: - c(6) + y(1)(6) <= 0
 IloC39: y(1)(7) - x(1)(7)(4) - x(1)(7)(3) - x(1)(7)(2) - x(1)(7)(1)  = 0
 IloC40: - c(7) + y(1)(7) <= 0
 IloC41: y(1)(8) - x(1)(8)(4) - x(1)(8)(3) - x(1)(8)(2) - x(1)(8)(1)  = 0
 IloC42: - c(8) + y(1)(8) <= 0
 IloC43: x(0)(0)(1) + x(0)(0)(4) + x(0)(0)(3) + x(0)(0)(2) <= 1
 IloC44: x(0)(1)(4) + x(0)(1)(3) + x(0)(1)(2) + x(0)(1)(1) <= 1
 IloC45: x(0)(2)(4) + x(0)(2)(3) + x(0)(2)(2) + x(0)(2)(1) <= 1
 IloC46: x(0)(3)(4) + x(0)(3)(3) + x(0)(3)(2) + x(0)(3)(1) <= 1
 IloC47: x(0)(4)(4) + x(0)(4)(3) + x(0)(4)(2) + x(0)(4)(1) <= 1
 IloC48: x(0)(5)(4) + x(0)(5)(3) + x(0)(5)(2) + x(0)(5)(1) <= 1
 IloC49: x(0)(6)(4) + x(0)(6)(3) + x(0)(6)(2) + x(0)(6)(1) <= 1
 IloC50: x(0)(7)(4) + x(0)(7)(3) + x(0)(7)(2) + x(0)(7)(1) <= 1
 IloC51: x(0)(8)(4) + x(0)(8)(3) + x(0)(8)(2) + x(0)(8)(1) <= 1
 IloC52: x(1)(0)(1) + x(1)(0)(4) + x(1)(0)(3) + x(1)(0)(2) <= 1
 IloC53: x(1)(1)(4) + x(1)(1)(3) + x(1)(1)(2) + x(1)(1)(1) <= 1
 IloC54: x(1)(2)(4) + x(1)(2)(3) + x(1)(2)(2) + x(1)(2)(1) <= 1
 IloC55: x(1)(3)(4) + x(1)(3)(3) + x(1)(3)(2) + x(1)(3)(1) <= 1
 IloC56: x(1)(4)(4) + x(1)(4)(3) + x(1)(4)(2) + x(1)(4)(1) <= 1
 IloC57: x(1)(5)(4) + x(1)(5)(3) + x(1)(5)(2) + x(1)(5)(1) <= 1
 IloC58: x(1)(6)(4) + x(1)(6)(3) + x(1)(6)(2) + x(1)(6)(1) <= 1
 IloC59: x(1)(7)(4) + x(1)(7)(3) + x(1)(7)(2) + x(1)(7)(1) <= 1
 IloC60: x(1)(8)(4) + x(1)(8)(3) + x(1)(8)(2) + x(1)(8)(1) <= 1
 IloC61: x(0)(0)(0) + y(0)(0) <= 1
 IloC62: x(0)(0)(0) + y(0)(0) + y(1)(0) <= 2
 IloC63: x(0)(0)(1) + y(0)(0) + y(1)(0) <= 2
 IloC64: x(1)(0)(0) + y(0)(0) + y(1)(0) <= 2
 IloC65: x(1)(0)(1) + y(0)(0) + y(1)(0) <= 2
 IloC66: x(1)(0)(0) + y(1)(0) <= 1
 IloC67: x(0)(4)(0) + y(0)(4) <= 1
 IloC68: x(0)(5)(0) + y(0)(5) <= 1
 IloC69: x(1)(7)(0) + y(1)(7) <= 1
 IloC70: 45000000 x(0)(0)(1) + 11250000 x(0)(0)(4) + 15000000 x(0)(0)(3)
         + 22500000 x(0)(0)(2) + 10000000 x(0)(4)(4)
         + 13333333.3333333 x(0)(4)(3) + 20000000 x(0)(4)(2)
         + 40000000 x(0)(4)(1) + 10000000 x(0)(5)(4)
         + 13333333.3333333 x(0)(5)(3) + 20000000 x(0)(5)(2)
         + 40000000 x(0)(5)(1) - 0.25 x(0)(7)(4) - 0.333333333333333 x(0)(7)(3)
         - 0.5 x(0)(7)(2) - x(0)(7)(1) >= 190000000
 IloC71: 45000000 x(1)(0)(1) + 11250000 x(1)(0)(4) + 15000000 x(1)(0)(3)
         + 22500000 x(1)(0)(2) - 0.25 x(1)(4)(4) - 0.333333333333333 x(1)(4)(3)
         - 0.5 x(1)(4)(2) - x(1)(4)(1) - 0.25 x(1)(5)(4)
         - 0.333333333333333 x(1)(5)(3) - 0.5 x(1)(5)(2) - x(1)(5)(1)
         + 5000000 x(1)(7)(4) + 6666666.66666667 x(1)(7)(3)
         + 10000000 x(1)(7)(2) + 20000000 x(1)(7)(1) >= 130000000
Bounds
 0 <= c(0) <= 1
 0 <= c(4) <= 1
 0 <= c(5) <= 1
 0 <= c(7) <= 1
 0 <= x(0)(0)(0) <= 1
 0 <= x(0)(0)(1) <= 1
 0 <= x(0)(4)(0) <= 1
 0 <= x(0)(5)(0) <= 1
 0 <= x(1)(0)(0) <= 1
 0 <= x(1)(0)(1) <= 1
 0 <= x(1)(7)(0) <= 1
 0 <= y(0)(0) <= 2
 0 <= x(0)(0)(4) <= 1
 0 <= x(0)(0)(3) <= 1
 0 <= x(0)(0)(2) <= 1
 0 <= y(0)(1) <= 2
 0 <= x(0)(1)(4) <= 1
 0 <= x(0)(1)(3) <= 1
 0 <= x(0)(1)(2) <= 1
 0 <= x(0)(1)(1) <= 1
 0 <= c(1) <= 1
 0 <= y(0)(2) <= 2
 0 <= x(0)(2)(4) <= 1
 0 <= x(0)(2)(3) <= 1
 0 <= x(0)(2)(2) <= 1
 0 <= x(0)(2)(1) <= 1
 0 <= c(2) <= 1
 0 <= y(0)(3) <= 2
 0 <= x(0)(3)(4) <= 1
 0 <= x(0)(3)(3) <= 1
 0 <= x(0)(3)(2) <= 1
 0 <= x(0)(3)(1) <= 1
 0 <= c(3) <= 1
 0 <= y(0)(4) <= 2
 0 <= x(0)(4)(4) <= 1
 0 <= x(0)(4)(3) <= 1
 0 <= x(0)(4)(2) <= 1
 0 <= x(0)(4)(1) <= 1
 0 <= y(0)(5) <= 2
 0 <= x(0)(5)(4) <= 1
 0 <= x(0)(5)(3) <= 1
 0 <= x(0)(5)(2) <= 1
 0 <= x(0)(5)(1) <= 1
 0 <= y(0)(6) <= 2
 0 <= x(0)(6)(4) <= 1
 0 <= x(0)(6)(3) <= 1
 0 <= x(0)(6)(2) <= 1
 0 <= x(0)(6)(1) <= 1
 0 <= c(6) <= 1
 0 <= y(0)(7) <= 2
 0 <= x(0)(7)(4) <= 1
 0 <= x(0)(7)(3) <= 1
 0 <= x(0)(7)(2) <= 1
 0 <= x(0)(7)(1) <= 1
 0 <= y(0)(8) <= 2
 0 <= x(0)(8)(4) <= 1
 0 <= x(0)(8)(3) <= 1
 0 <= x(0)(8)(2) <= 1
 0 <= x(0)(8)(1) <= 1
 0 <= c(8) <= 1
 0 <= y(1)(0) <= 2
 0 <= x(1)(0)(4) <= 1
 0 <= x(1)(0)(3) <= 1
 0 <= x(1)(0)(2) <= 1
 0 <= y(1)(1) <= 2
 0 <= x(1)(1)(4) <= 1
 0 <= x(1)(1)(3) <= 1
 0 <= x(1)(1)(2) <= 1
 0 <= x(1)(1)(1) <= 1
 0 <= y(1)(2) <= 2
 0 <= x(1)(2)(4) <= 1
 0 <= x(1)(2)(3) <= 1
 0 <= x(1)(2)(2) <= 1
 0 <= x(1)(2)(1) <= 1
 0 <= y(1)(3) <= 2
 0 <= x(1)(3)(4) <= 1
 0 <= x(1)(3)(3) <= 1
 0 <= x(1)(3)(2) <= 1
 0 <= x(1)(3)(1) <= 1
 0 <= y(1)(4) <= 2
 0 <= x(1)(4)(4) <= 1
 0 <= x(1)(4)(3) <= 1
 0 <= x(1)(4)(2) <= 1
 0 <= x(1)(4)(1) <= 1
 0 <= y(1)(5) <= 2
 0 <= x(1)(5)(4) <= 1
 0 <= x(1)(5)(3) <= 1
 0 <= x(1)(5)(2) <= 1
 0 <= x(1)(5)(1) <= 1
 0 <= y(1)(6) <= 2
 0 <= x(1)(6)(4) <= 1
 0 <= x(1)(6)(3) <= 1
 0 <= x(1)(6)(2) <= 1
 0 <= x(1)(6)(1) <= 1
 0 <= y(1)(7) <= 2
 0 <= x(1)(7)(4) <= 1
 0 <= x(1)(7)(3) <= 1
 0 <= x(1)(7)(2) <= 1
 0 <= x(1)(7)(1) <= 1
 0 <= y(1)(8) <= 2
 0 <= x(1)(8)(4) <= 1
 0 <= x(1)(8)(3) <= 1
 0 <= x(1)(8)(2) <= 1
 0 <= x(1)(8)(1) <= 1
Generals
 c(0)  c(4)  c(5)  c(7)  x(0)(0)(0)  x(0)(0)(1)  x(0)(4)(0)  x(0)(5)(0) 
 x(1)(0)(0)  x(1)(0)(1)  x(1)(7)(0)  y(0)(0)  x(0)(0)(4)  x(0)(0)(3) 
 x(0)(0)(2)  y(0)(1)  x(0)(1)(4)  x(0)(1)(3)  x(0)(1)(2)  x(0)(1)(1)  c(1) 
 y(0)(2)  x(0)(2)(4)  x(0)(2)(3)  x(0)(2)(2)  x(0)(2)(1)  c(2)  y(0)(3) 
 x(0)(3)(4)  x(0)(3)(3)  x(0)(3)(2)  x(0)(3)(1)  c(3)  y(0)(4)  x(0)(4)(4) 
 x(0)(4)(3)  x(0)(4)(2)  x(0)(4)(1)  y(0)(5)  x(0)(5)(4)  x(0)(5)(3) 
 x(0)(5)(2)  x(0)(5)(1)  y(0)(6)  x(0)(6)(4)  x(0)(6)(3)  x(0)(6)(2) 
 x(0)(6)(1)  c(6)  y(0)(7)  x(0)(7)(4)  x(0)(7)(3)  x(0)(7)(2)  x(0)(7)(1) 
 y(0)(8)  x(0)(8)(4)  x(0)(8)(3)  x(0)(8)(2)  x(0)(8)(1)  c(8)  y(1)(0) 
 x(1)(0)(4)  x(1)(0)(3)  x(1)(0)(2)  y(1)(1)  x(1)(1)(4)  x(1)(1)(3) 
 x(1)(1)(2)  x(1)(1)(1)  y(1)(2)  x(1)(2)(4)  x(1)(2)(3)  x(1)(2)(2) 
 x(1)(2)(1)  y(1)(3)  x(1)(3)(4)  x(1)(3)(3)  x(1)(3)(2)  x(1)(3)(1)  y(1)(4) 
 x(1)(4)(4)  x(1)(4)(3)  x(1)(4)(2)  x(1)(4)(1)  y(1)(5)  x(1)(5)(4) 
 x(1)(5)(3)  x(1)(5)(2)  x(1)(5)(1)  y(1)(6)  x(1)(6)(4)  x(1)(6)(3) 
 x(1)(6)(2)  x(1)(6)(1)  y(1)(7)  x(1)(7)(4)  x(1)(7)(3)  x(1)(7)(2) 
 x(1)(7)(1)  y(1)(8)  x(1)(8)(4)  x(1)(8)(3)  x(1)(8)(2)  x(1)(8)(1) 
End
